outputs/case_221.smt2
; SMT2 file generated from compliance case automatic
; Case ID: case_221
; Generated at: 2025-10-21T04:54:08.683930
;
; This file can be executed with Z3:
;   z3 case_221.smt2
;

(set-logic ALL)

; ============================================================
; Variable Declarations
; ============================================================

(declare-const capital_adequacy_ratio Real)
(declare-const capital_level Int)
(declare-const internal_control_compliance Bool)
(declare-const internal_control_established Bool)
(declare-const internal_control_established_flag Bool)
(declare-const internal_control_executed Bool)
(declare-const internal_handling_compliance Bool)
(declare-const internal_handling_established Bool)
(declare-const internal_handling_established_flag Bool)
(declare-const internal_handling_executed Bool)
(declare-const net_worth Real)
(declare-const net_worth_ratio Real)
(declare-const net_worth_ratio_prev Real)
(declare-const penalty Bool)

; ============================================================
; Constraints (Legal Rules)
; ============================================================

; [insurance:internal_control_established] 保險業已建立內部控制及稽核制度
(assert (= internal_control_established internal_control_established_flag))

; [insurance:internal_handling_established] 保險業已建立內部處理制度及程序
(assert (= internal_handling_established internal_handling_established_flag))

; [insurance:capital_level] 保險業資本等級分類（1=適足, 2=不足, 3=顯著不足, 4=嚴重不足, 0=未分類）
(assert (let ((a!1 (or (and (not (<= 3.0 net_worth_ratio)) (<= 2.0 net_worth_ratio))
               (and (<= 150.0 capital_adequacy_ratio)
                    (not (<= 200.0 capital_adequacy_ratio)))))
      (a!2 (ite (and (<= 200.0 capital_adequacy_ratio)
                     (or (<= 3.0 net_worth_ratio) (<= 3.0 net_worth_ratio_prev)))
                1
                0)))
(let ((a!3 (ite (and (<= 50.0 capital_adequacy_ratio)
                     (not (<= 150.0 capital_adequacy_ratio))
                     (<= 0.0 net_worth_ratio)
                     (not (<= 2.0 net_worth_ratio)))
                3
                (ite a!1 2 a!2))))
(let ((a!4 (ite (or (not (<= 50.0 capital_adequacy_ratio))
                    (not (<= 0.0 net_worth)))
                4
                a!3)))
  (= capital_level a!4)))))

; [insurance:internal_control_compliance] 內部控制及稽核制度已建立且執行
(assert (= internal_control_compliance
   (and internal_control_established internal_control_executed)))

; [insurance:internal_handling_compliance] 內部處理制度及程序已建立且執行
(assert (= internal_handling_compliance
   (and internal_handling_established internal_handling_executed)))

; [meta:penalty_default_false] 預設不處罰
(assert (not penalty))

; [meta:penalty_conditions] 處罰條件：未建立或未執行內部控制或內部處理制度時處罰
(assert (= penalty
   (or (not internal_control_compliance) (not internal_handling_compliance))))

; ============================================================
; Facts (Case Specific)
; ============================================================

(assert (= capital_adequacy_ratio 40.0))
(assert (= net_worth -1000000))
(assert (= net_worth_ratio -10.0))
(assert (= net_worth_ratio_prev -10.0))
(assert (= internal_control_established_flag false))
(assert (= internal_control_established false))
(assert (= internal_control_executed false))
(assert (= internal_handling_established_flag false))
(assert (= internal_handling_established false))
(assert (= internal_handling_executed false))
(assert (= penalty true))

; ============================================================
; Check Satisfiability
; ============================================================

(check-sat)
(get-model)

; ============================================================
; Additional Information
; ============================================================
; Total constraints: 7
; Total variables: 14
; Total facts: 11
;
; Expected result:
;   - If UNSAT: Case violates legal rules
;   - If SAT: Case complies with legal rules (or error in constraints)
