outputs/case_221.model.txt
capital_adequacy_ratio = 40
net_worth_ratio_prev = -10
net_worth_ratio = -10
net_worth = -1000000
internal_handling_established_flag = True
internal_control_established_flag = True
internal_control_executed = True
internal_handling_established = True
capital_level = 4
penalty = False
internal_control_compliance = True
internal_handling_executed = True
internal_control_established = True
internal_handling_compliance = True